CMPL model generation - running

CMPL version: 1.11.0
Authors: Thomas Schleiff, Mike Steglich
Distributed under the GPLv3 

create model instance ...
write model instance ...
CMPL model generation - finished

Solver - running


Welcome to IBM(R) ILOG(R) CPLEX(R) Interactive Optimizer 12.7.1.0
  with Simplex, Mixed Integer & Barrier Optimizers
5725-A06 5725-A29 5724-Y48 5724-Y49 5724-Y54 5724-Y55 5655-Y21
Copyright IBM Corp. 1988, 2017.  All Rights Reserved.

Type 'help' for a list of available commands.
Type 'help' followed by a command name for more
information on commands.

CPLEX> Specified objective sense: MINIMIZE
Selected objective  name:  line[1]
Selected RHS        name:  RHS
Selected bound      name:  BOUND
Problem '/tmp/cmpl.T24149.mps' read.
Read time = 0.06 sec. (8.17 ticks)
CPLEX> CPXPARAM_Read_APIEncoding                        "UTF-8"
Tried aggregator 3 times.
MIP Presolve eliminated 19208 rows and 30652 columns.
MIP Presolve modified 340 coefficients.
Aggregator did 640 substitutions.
Reduced MIP has 2507 rows, 3301 columns, and 9623 nonzeros.
Reduced MIP has 3133 binaries, 0 generals, 0 SOSs, and 0 indicators.
Presolve time = 0.07 sec. (41.91 ticks)
Found incumbent of value 792.658253 after 0.11 sec. (63.55 ticks)
Probing fixed 9 vars, tightened 0 bounds.
Probing time = 0.01 sec. (4.32 ticks)
Tried aggregator 1 time.
MIP Presolve eliminated 0 rows and 9 columns.
MIP Presolve modified 39 coefficients.
Reduced MIP has 2507 rows, 3292 columns, and 9605 nonzeros.
Reduced MIP has 3292 binaries, 0 generals, 0 SOSs, and 0 indicators.
Presolve time = 0.01 sec. (8.14 ticks)
Probing time = 0.01 sec. (2.68 ticks)
Clique table members: 5884.
MIP emphasis: balance optimality and feasibility.
MIP search method: dynamic search.
Parallel mode: none, using 1 thread.
Root relaxation solution time = 0.01 sec. (4.99 ticks)

        Nodes                                         Cuts/
   Node  Left     Objective  IInf  Best Integer    Best Bound    ItCnt     Gap

*     0+    0                          792.6583      -34.1540           104.31%
      0     0      184.8169    11      792.6583      184.8169      168   76.68%
*     0+    0                          198.7422      184.8169             7.01%
*     0+    0                          185.1312      184.8169             0.17%
*     0     0      integral     0      185.0880       Cuts: 9      171    0.00%
      0     0        cutoff            185.0880      185.0880      171    0.00%
Elapsed time = 0.18 sec. (104.71 ticks, tree = 0.01 MB, solutions = 4)

Cover cuts applied:  6
Gomory fractional cuts applied:  3

Root node processing (before b&c):
  Real time             =    0.18 sec. (106.43 ticks)
Sequential b&c:
  Real time             =    0.00 sec. (0.00 ticks)
                          ------------
Total (root+branch&cut) =    0.18 sec. (106.43 ticks)

Solution pool: 4 solutions saved.

MIP - Integer optimal solution:  Objective =  1.8508801700e+02
Solution time =    0.18 sec.  Iterations = 171  Nodes = 0
Deterministic time = 106.53 ticks  (592.72 ticks/sec)

CPLEX> Incumbent solution written to file '/tmp/cmpl.T24149.gsol'.
CPLEX> 
CMPL: Time used for model generation: 1 seconds
CMPL: Time used for solving the model: 0 seconds


Solution written to ASCII file: results/output_generated_conf_0.5/2016-03-07-4/fair-nonlinear.sol

Solver - finished
